p cnf 1405 3437
1 0
2 0
3 0
4 0
5 0
6 0
7 0
8 0
9 0
10 0
11 0
12 0
13 0
14 0
15 0
16 0
17 0
18 0
19 0
20 0
21 0
22 0
23 0
24 0
25 0
26 0
27 0
28 0
29 0
30 0
31 0
32 0
33 0
34 0
35 0
36 0
37 0
38 0
39 0
40 0
41 0
42 0
43 0
44 0
45 0
46 0
47 0
48 0
49 0
50 0
-51 0
-52 0
-53 0
-54 0
-55 0
-56 0
-57 0
-58 0
-59 0
-60 0
-61 0
-62 0
-63 0
-64 0
-65 0
-66 0
-67 0
-68 0
-69 0
-70 0
-71 0
-72 0
-73 0
-74 0
-75 0
-76 0
-77 0
-78 0
-79 0
-80 0
-81 0
-82 0
-83 0
-84 0
-85 0
-86 0
-87 0
-88 0
-89 0
-90 0
-91 0
-92 0
-93 0
-94 0
-95 0
-96 0
-97 0
-98 0
-99 0
-100 0
101 -102 0
-103 101 0
-104 101 0
-105 101 0
101 -106 0
101 -107 0
101 -108 0
101 -109 0
101 -110 0
-111 101 0
-112 101 0
113 0
1 -101 0
-1 101 0
-103 114 0
-104 114 0
-105 114 0
-106 114 0
-107 114 0
-108 114 0
-109 114 0
-110 114 0
-111 114 0
-112 114 0
115 0
116 -114 0
-116 114 0
-104 117 0
-105 117 0
-106 117 0
-107 117 0
-108 117 0
-109 117 0
-110 117 0
-111 117 0
-112 117 0
118 0
119 -117 0
-119 117 0
-105 120 0
-106 120 0
-107 120 0
-108 120 0
-109 120 0
-110 120 0
-111 120 0
-112 120 0
121 0
122 -120 0
-122 120 0
-106 123 0
-107 123 0
-108 123 0
-109 123 0
-110 123 0
-111 123 0
-112 123 0
124 0
125 -123 0
-125 123 0
-107 126 0
-108 126 0
-109 126 0
-110 126 0
-111 126 0
-112 126 0
127 0
128 -126 0
-128 126 0
129 -126 0
-129 126 0
130 -126 0
-130 126 0
131 -126 0
-131 126 0
132 -126 0
-132 126 0
133 -126 0
-133 126 0
-134 135 0
-136 135 0
135 -137 0
-138 135 0
135 -139 0
135 -140 0
-141 135 0
-142 135 0
143 0
2 -135 0
-2 135 0
-136 144 0
-137 144 0
-138 144 0
-139 144 0
-140 144 0
-141 144 0
-142 144 0
145 0
146 -144 0
-146 144 0
-137 147 0
-138 147 0
-139 147 0
-140 147 0
-141 147 0
-142 147 0
148 0
149 -147 0
-149 147 0
-138 150 0
-139 150 0
-140 150 0
-141 150 0
-142 150 0
138 139 140 141 142 -150 0
151 -150 0
-151 150 0
152 -150 0
-152 150 0
153 -150 0
-153 150 0
154 -150 0
-154 150 0
155 -150 0
-155 150 0
156 -157 0
-158 156 0
156 -159 0
156 -160 0
156 -161 0
156 -162 0
-163 156 0
-164 156 0
-165 156 0
156 -166 0
-167 156 0
168 0
3 -156 0
-3 156 0
-158 169 0
-159 169 0
-160 169 0
-161 169 0
-162 169 0
-163 169 0
-164 169 0
-165 169 0
-166 169 0
-167 169 0
170 0
171 -169 0
-171 169 0
-159 172 0
-160 172 0
-161 172 0
-162 172 0
-163 172 0
-164 172 0
-165 172 0
-166 172 0
-167 172 0
173 0
174 -172 0
-174 172 0
-160 175 0
-161 175 0
-162 175 0
-163 175 0
-164 175 0
-165 175 0
-166 175 0
-167 175 0
176 0
177 -175 0
-177 175 0
-161 178 0
-162 178 0
-163 178 0
-164 178 0
-165 178 0
-166 178 0
-167 178 0
179 0
180 -178 0
-180 178 0
-162 181 0
-163 181 0
-164 181 0
-165 181 0
-166 181 0
-167 181 0
182 0
183 -181 0
-183 181 0
184 -181 0
-184 181 0
185 -181 0
-185 181 0
186 -181 0
-186 181 0
187 -181 0
-187 181 0
188 -181 0
-188 181 0
189 -190 0
189 -191 0
189 -192 0
-193 189 0
189 -194 0
189 -195 0
-196 189 0
-197 189 0
-198 189 0
189 -199 0
-200 189 0
201 0
4 -189 0
-4 189 0
-191 202 0
-192 202 0
-193 202 0
-194 202 0
-195 202 0
-196 202 0
-197 202 0
-198 202 0
-199 202 0
-200 202 0
203 0
204 -202 0
-204 202 0
-192 205 0
-193 205 0
-194 205 0
-195 205 0
-196 205 0
-197 205 0
-198 205 0
-199 205 0
-200 205 0
206 0
207 -205 0
-207 205 0
-193 208 0
-194 208 0
-195 208 0
-196 208 0
-197 208 0
-198 208 0
-199 208 0
-200 208 0
209 0
210 -208 0
-210 208 0
-194 211 0
-195 211 0
-196 211 0
-197 211 0
-198 211 0
-199 211 0
-200 211 0
212 0
213 -211 0
-213 211 0
-195 214 0
-196 214 0
-197 214 0
-198 214 0
-199 214 0
-200 214 0
215 0
216 -214 0
-216 214 0
217 -214 0
-217 214 0
218 -214 0
-218 214 0
219 -214 0
-219 214 0
220 -214 0
-220 214 0
221 -214 0
-221 214 0
222 -223 0
222 -224 0
-225 222 0
222 -226 0
-227 222 0
-228 222 0
222 -229 0
222 -230 0
-231 222 0
232 0
5 -222 0
-5 222 0
-224 233 0
-225 233 0
-226 233 0
-227 233 0
-228 233 0
-229 233 0
-230 233 0
-231 233 0
234 0
235 -233 0
-235 233 0
-225 236 0
-226 236 0
-227 236 0
-228 236 0
-229 236 0
-230 236 0
-231 236 0
237 0
238 -236 0
-238 236 0
-226 239 0
-227 239 0
-228 239 0
-229 239 0
-230 239 0
-231 239 0
240 0
241 -239 0
-241 239 0
-227 242 0
-228 242 0
-229 242 0
-230 242 0
-231 242 0
227 228 229 230 231 -242 0
243 -242 0
-243 242 0
244 -242 0
-244 242 0
245 -242 0
-245 242 0
246 -242 0
-246 242 0
247 -242 0
-247 242 0
-248 249 0
249 -250 0
249 -251 0
-252 249 0
248 250 251 252 -249 0
6 -249 0
-6 249 0
-250 253 0
-251 253 0
-252 253 0
250 251 252 -253 0
254 -253 0
-254 253 0
-251 255 0
-252 255 0
251 252 -255 0
256 -255 0
-256 255 0
257 -252 0
-257 252 0
258 -259 0
-260 258 0
258 -261 0
-262 258 0
-263 258 0
-264 258 0
-265 258 0
258 -266 0
258 -267 0
268 0
7 -258 0
-7 258 0
-260 269 0
-261 269 0
-262 269 0
-263 269 0
-264 269 0
-265 269 0
-266 269 0
-267 269 0
270 0
271 -269 0
-271 269 0
-261 272 0
-262 272 0
-263 272 0
-264 272 0
-265 272 0
-266 272 0
-267 272 0
273 0
274 -272 0
-274 272 0
-262 275 0
-263 275 0
-264 275 0
-265 275 0
-266 275 0
-267 275 0
276 0
277 -275 0
-277 275 0
-263 278 0
-264 278 0
-265 278 0
-266 278 0
-267 278 0
263 264 265 266 267 -278 0
279 -278 0
-279 278 0
280 -278 0
-280 278 0
281 -278 0
-281 278 0
282 -278 0
-282 278 0
283 -278 0
-283 278 0
-284 285 0
-286 285 0
-287 285 0
285 -288 0
-289 285 0
-290 285 0
285 -291 0
-292 285 0
285 -293 0
285 -294 0
295 0
8 -285 0
-8 285 0
-286 296 0
-287 296 0
-288 296 0
-289 296 0
-290 296 0
-291 296 0
-292 296 0
-293 296 0
-294 296 0
297 0
298 -296 0
-298 296 0
-287 299 0
-288 299 0
-289 299 0
-290 299 0
-291 299 0
-292 299 0
-293 299 0
-294 299 0
300 0
301 -299 0
-301 299 0
-288 302 0
-289 302 0
-290 302 0
-291 302 0
-292 302 0
-293 302 0
-294 302 0
303 0
304 -302 0
-304 302 0
-289 305 0
-290 305 0
-291 305 0
-292 305 0
-293 305 0
-294 305 0
306 0
307 -305 0
-307 305 0
-290 308 0
-291 308 0
-292 308 0
-293 308 0
-294 308 0
290 291 292 293 294 -308 0
309 -308 0
-309 308 0
-291 310 0
-292 310 0
-293 310 0
-294 310 0
291 292 293 294 -310 0
311 -310 0
-311 310 0
312 -310 0
-312 310 0
313 -310 0
-313 310 0
314 -310 0
-314 310 0
315 -316 0
315 -317 0
-318 315 0
-319 315 0
-320 315 0
315 -321 0
-322 315 0
-323 315 0
-324 315 0
315 -325 0
315 -326 0
327 0
9 -315 0
-9 315 0
-317 328 0
-318 328 0
-319 328 0
-320 328 0
-321 328 0
-322 328 0
-323 328 0
-324 328 0
-325 328 0
-326 328 0
329 0
330 -328 0
-330 328 0
-318 331 0
-319 331 0
-320 331 0
-321 331 0
-322 331 0
-323 331 0
-324 331 0
-325 331 0
-326 331 0
332 0
333 -331 0
-333 331 0
-319 334 0
-320 334 0
-321 334 0
-322 334 0
-323 334 0
-324 334 0
-325 334 0
-326 334 0
335 0
336 -334 0
-336 334 0
-320 337 0
-321 337 0
-322 337 0
-323 337 0
-324 337 0
-325 337 0
-326 337 0
338 0
339 -337 0
-339 337 0
-321 340 0
-322 340 0
-323 340 0
-324 340 0
-325 340 0
-326 340 0
341 0
342 -340 0
-342 340 0
343 -340 0
-343 340 0
344 -340 0
-344 340 0
345 -340 0
-345 340 0
346 -340 0
-346 340 0
347 -340 0
-347 340 0
348 -349 0
-350 348 0
-351 348 0
348 -352 0
348 -353 0
348 -354 0
348 -355 0
-356 348 0
357 0
10 -348 0
-10 348 0
-350 358 0
-351 358 0
-352 358 0
-353 358 0
-354 358 0
-355 358 0
-356 358 0
359 0
360 -358 0
-360 358 0
-351 361 0
-352 361 0
-353 361 0
-354 361 0
-355 361 0
-356 361 0
362 0
363 -361 0
-363 361 0
-352 364 0
-353 364 0
-354 364 0
-355 364 0
-356 364 0
352 353 354 355 356 -364 0
365 -364 0
-365 364 0
-353 366 0
-354 366 0
-355 366 0
-356 366 0
353 354 355 356 -366 0
367 -366 0
-367 366 0
368 -366 0
-368 366 0
369 -366 0
-369 366 0
370 -366 0
-370 366 0
-371 372 0
-373 372 0
372 -374 0
-375 372 0
372 -376 0
372 -377 0
378 0
11 -372 0
-11 372 0
-373 379 0
-374 379 0
-375 379 0
-376 379 0
-377 379 0
380 0
381 -379 0
-381 379 0
382 -379 0
-382 379 0
383 -379 0
-383 379 0
384 -379 0
-384 379 0
385 -379 0
-385 379 0
386 -387 0
386 -388 0
386 -389 0
-390 386 0
386 -391 0
-392 386 0
-393 386 0
394 0
12 -386 0
-12 386 0
-388 395 0
-389 395 0
-390 395 0
-391 395 0
-392 395 0
-393 395 0
396 0
397 -395 0
-397 395 0
398 -395 0
-398 395 0
399 -395 0
-399 395 0
400 -395 0
-400 395 0
401 -395 0
-401 395 0
402 -395 0
-402 395 0
403 -404 0
403 -405 0
403 -406 0
403 -407 0
-408 403 0
-409 403 0
-410 403 0
-411 403 0
403 -412 0
413 0
13 -403 0
-13 403 0
-405 414 0
-406 414 0
-407 414 0
-408 414 0
-409 414 0
-410 414 0
-411 414 0
-412 414 0
415 0
416 -414 0
-416 414 0
-406 417 0
-407 417 0
-408 417 0
-409 417 0
-410 417 0
-411 417 0
-412 417 0
418 0
419 -417 0
-419 417 0
-407 420 0
-408 420 0
-409 420 0
-410 420 0
-411 420 0
-412 420 0
421 0
422 -420 0
-422 420 0
-408 423 0
-409 423 0
-410 423 0
-411 423 0
-412 423 0
424 0
425 -423 0
-425 423 0
-409 426 0
-410 426 0
-411 426 0
-412 426 0
409 410 411 412 -426 0
427 -426 0
-427 426 0
428 -426 0
-428 426 0
429 -426 0
-429 426 0
430 -426 0
-430 426 0
431 -432 0
-433 431 0
-434 431 0
431 -435 0
-436 431 0
-437 431 0
431 -438 0
-439 431 0
431 -440 0
431 -441 0
442 0
14 -431 0
-14 431 0
-433 443 0
-434 443 0
-435 443 0
-436 443 0
-437 443 0
-438 443 0
-439 443 0
-440 443 0
-441 443 0
444 0
445 -443 0
-445 443 0
-434 446 0
-435 446 0
-436 446 0
-437 446 0
-438 446 0
-439 446 0
-440 446 0
-441 446 0
447 0
448 -446 0
-448 446 0
-435 449 0
-436 449 0
-437 449 0
-438 449 0
-439 449 0
-440 449 0
-441 449 0
450 0
451 -449 0
-451 449 0
-436 452 0
-437 452 0
-438 452 0
-439 452 0
-440 452 0
-441 452 0
453 0
454 -452 0
-454 452 0
-437 455 0
-438 455 0
-439 455 0
-440 455 0
-441 455 0
456 0
457 -455 0
-457 455 0
458 -455 0
-458 455 0
459 -455 0
-459 455 0
460 -455 0
-460 455 0
461 -455 0
-461 455 0
462 -463 0
462 -464 0
462 -465 0
-466 462 0
-467 462 0
-468 462 0
-469 462 0
462 -470 0
462 -471 0
-472 462 0
-473 462 0
462 -474 0
475 0
15 -462 0
-15 462 0
-464 476 0
-465 476 0
-466 476 0
-467 476 0
-468 476 0
-469 476 0
-470 476 0
-471 476 0
-472 476 0
-473 476 0
-474 476 0
477 0
478 -476 0
-478 476 0
-465 479 0
-466 479 0
-467 479 0
-468 479 0
-469 479 0
-470 479 0
-471 479 0
-472 479 0
-473 479 0
-474 479 0
480 0
481 -479 0
-481 479 0
-466 482 0
-467 482 0
-468 482 0
-469 482 0
-470 482 0
-471 482 0
-472 482 0
-473 482 0
-474 482 0
483 0
484 -482 0
-484 482 0
-467 485 0
-468 485 0
-469 485 0
-470 485 0
-471 485 0
-472 485 0
-473 485 0
-474 485 0
486 0
487 -485 0
-487 485 0
-468 488 0
-469 488 0
-470 488 0
-471 488 0
-472 488 0
-473 488 0
-474 488 0
489 0
490 -488 0
-490 488 0
-469 491 0
-470 491 0
-471 491 0
-472 491 0
-473 491 0
-474 491 0
492 0
493 -491 0
-493 491 0
494 -491 0
-494 491 0
495 -491 0
-495 491 0
496 -491 0
-496 491 0
497 -491 0
-497 491 0
498 -491 0
-498 491 0
-499 500 0
-501 500 0
-502 500 0
-503 500 0
500 -504 0
-505 500 0
-506 500 0
500 -507 0
508 0
16 -500 0
-16 500 0
-501 509 0
-502 509 0
-503 509 0
-504 509 0
-505 509 0
-506 509 0
-507 509 0
510 0
511 -509 0
-511 509 0
-502 512 0
-503 512 0
-504 512 0
-505 512 0
-506 512 0
-507 512 0
513 0
514 -512 0
-514 512 0
-503 515 0
-504 515 0
-505 515 0
-506 515 0
-507 515 0
516 0
517 -515 0
-517 515 0
-504 518 0
-505 518 0
-506 518 0
-507 518 0
504 505 506 507 -518 0
519 -518 0
-519 518 0
520 -518 0
-520 518 0
521 -518 0
-521 518 0
522 -518 0
-522 518 0
-523 524 0
-525 524 0
524 -526 0
524 -527 0
524 -528 0
524 -529 0
524 -530 0
524 -531 0
-532 524 0
533 0
17 -524 0
-17 524 0
-525 534 0
-526 534 0
-527 534 0
-528 534 0
-529 534 0
-530 534 0
-531 534 0
-532 534 0
535 0
536 -534 0
-536 534 0
-526 537 0
-527 537 0
-528 537 0
-529 537 0
-530 537 0
-531 537 0
-532 537 0
538 0
539 -537 0
-539 537 0
-527 540 0
-528 540 0
-529 540 0
-530 540 0
-531 540 0
-532 540 0
541 0
542 -540 0
-542 540 0
543 -540 0
-543 540 0
544 -540 0
-544 540 0
545 -540 0
-545 540 0
546 -540 0
-546 540 0
547 -540 0
-547 540 0
-548 549 0
549 -550 0
549 -551 0
-552 549 0
-553 549 0
-554 549 0
-555 549 0
-556 549 0
549 -557 0
-558 549 0
549 -559 0
560 0
18 -549 0
-18 549 0
-550 561 0
-551 561 0
-552 561 0
-553 561 0
-554 561 0
-555 561 0
-556 561 0
-557 561 0
-558 561 0
-559 561 0
562 0
563 -561 0
-563 561 0
-551 564 0
-552 564 0
-553 564 0
-554 564 0
-555 564 0
-556 564 0
-557 564 0
-558 564 0
-559 564 0
565 0
566 -564 0
-566 564 0
-552 567 0
-553 567 0
-554 567 0
-555 567 0
-556 567 0
-557 567 0
-558 567 0
-559 567 0
568 0
569 -567 0
-569 567 0
-553 570 0
-554 570 0
-555 570 0
-556 570 0
-557 570 0
-558 570 0
-559 570 0
571 0
572 -570 0
-572 570 0
-554 573 0
-555 573 0
-556 573 0
-557 573 0
-558 573 0
-559 573 0
574 0
575 -573 0
-575 573 0
576 -573 0
-576 573 0
577 -573 0
-577 573 0
578 -573 0
-578 573 0
579 -573 0
-579 573 0
580 -573 0
-580 573 0
-581 582 0
-583 582 0
-584 582 0
-585 582 0
582 -586 0
-587 582 0
-588 582 0
-589 582 0
582 -590 0
582 -591 0
592 0
19 -582 0
-19 582 0
-583 593 0
-584 593 0
-585 593 0
-586 593 0
-587 593 0
-588 593 0
-589 593 0
-590 593 0
-591 593 0
594 0
595 -593 0
-595 593 0
-584 596 0
-585 596 0
-586 596 0
-587 596 0
-588 596 0
-589 596 0
-590 596 0
-591 596 0
597 0
598 -596 0
-598 596 0
-585 599 0
-586 599 0
-587 599 0
-588 599 0
-589 599 0
-590 599 0
-591 599 0
600 0
601 -599 0
-601 599 0
-586 602 0
-587 602 0
-588 602 0
-589 602 0
-590 602 0
-591 602 0
603 0
604 -602 0
-604 602 0
-587 605 0
-588 605 0
-589 605 0
-590 605 0
-591 605 0
606 0
607 -605 0
-607 605 0
-588 608 0
-589 608 0
-590 608 0
-591 608 0
588 589 590 591 -608 0
609 -608 0
-609 608 0
610 -608 0
-610 608 0
611 -608 0
-611 608 0
612 -608 0
-612 608 0
613 -614 0
613 -615 0
613 -616 0
-617 613 0
-618 613 0
613 -619 0
-620 613 0
-621 613 0
613 -622 0
623 0
20 -613 0
-20 613 0
-615 624 0
-616 624 0
-617 624 0
-618 624 0
-619 624 0
-620 624 0
-621 624 0
-622 624 0
625 0
626 -624 0
-626 624 0
-616 627 0
-617 627 0
-618 627 0
-619 627 0
-620 627 0
-621 627 0
-622 627 0
628 0
629 -627 0
-629 627 0
-617 630 0
-618 630 0
-619 630 0
-620 630 0
-621 630 0
-622 630 0
631 0
632 -630 0
-632 630 0
-618 633 0
-619 633 0
-620 633 0
-621 633 0
-622 633 0
634 0
635 -633 0
-635 633 0
636 -633 0
-636 633 0
637 -633 0
-637 633 0
638 -633 0
-638 633 0
639 -633 0
-639 633 0
-640 641 0
641 -642 0
-643 641 0
-644 641 0
640 642 643 644 -641 0
21 -641 0
-21 641 0
645 -641 0
-645 641 0
646 -641 0
-646 641 0
647 -641 0
-647 641 0
648 -649 0
-650 648 0
648 -651 0
648 -652 0
-653 648 0
-654 648 0
-655 648 0
648 -656 0
648 -657 0
658 0
22 -648 0
-22 648 0
-650 659 0
-651 659 0
-652 659 0
-653 659 0
-654 659 0
-655 659 0
-656 659 0
-657 659 0
660 0
661 -659 0
-661 659 0
-651 662 0
-652 662 0
-653 662 0
-654 662 0
-655 662 0
-656 662 0
-657 662 0
663 0
664 -662 0
-664 662 0
-652 665 0
-653 665 0
-654 665 0
-655 665 0
-656 665 0
-657 665 0
666 0
667 -665 0
-667 665 0
-653 668 0
-654 668 0
-655 668 0
-656 668 0
-657 668 0
669 0
670 -668 0
-670 668 0
-654 671 0
-655 671 0
-656 671 0
-657 671 0
654 655 656 657 -671 0
672 -671 0
-672 671 0
673 -671 0
-673 671 0
674 -671 0
-674 671 0
675 -671 0
-675 671 0
-676 677 0
-678 677 0
677 -679 0
-680 677 0
677 -681 0
677 -682 0
-683 677 0
-684 677 0
-685 677 0
677 -686 0
677 -687 0
-688 677 0
689 0
23 -677 0
-23 677 0
-678 690 0
-679 690 0
-680 690 0
-681 690 0
-682 690 0
-683 690 0
-684 690 0
-685 690 0
-686 690 0
-687 690 0
-688 690 0
691 0
692 -690 0
-692 690 0
-679 693 0
-680 693 0
-681 693 0
-682 693 0
-683 693 0
-684 693 0
-685 693 0
-686 693 0
-687 693 0
-688 693 0
694 0
695 -693 0
-695 693 0
-680 696 0
-681 696 0
-682 696 0
-683 696 0
-684 696 0
-685 696 0
-686 696 0
-687 696 0
-688 696 0
697 0
698 -696 0
-698 696 0
-681 699 0
-682 699 0
-683 699 0
-684 699 0
-685 699 0
-686 699 0
-687 699 0
-688 699 0
700 0
701 -699 0
-701 699 0
-682 702 0
-683 702 0
-684 702 0
-685 702 0
-686 702 0
-687 702 0
-688 702 0
703 0
704 -702 0
-704 702 0
-683 705 0
-684 705 0
-685 705 0
-686 705 0
-687 705 0
-688 705 0
706 0
707 -705 0
-707 705 0
708 -705 0
-708 705 0
709 -705 0
-709 705 0
710 -705 0
-710 705 0
711 -705 0
-711 705 0
712 -705 0
-712 705 0
713 -714 0
713 -715 0
713 -716 0
713 -717 0
713 -718 0
-719 713 0
713 -720 0
-721 713 0
722 0
24 -713 0
-24 713 0
-715 723 0
-716 723 0
-717 723 0
-718 723 0
-719 723 0
-720 723 0
-721 723 0
724 0
725 -723 0
-725 723 0
-716 726 0
-717 726 0
-718 726 0
-719 726 0
-720 726 0
-721 726 0
727 0
728 -726 0
-728 726 0
-717 729 0
-718 729 0
-719 729 0
-720 729 0
-721 729 0
730 0
731 -729 0
-731 729 0
732 -729 0
-732 729 0
733 -729 0
-733 729 0
734 -729 0
-734 729 0
735 -729 0
-735 729 0
736 -737 0
-738 736 0
736 -739 0
-740 736 0
-741 736 0
736 -742 0
743 0
25 -736 0
-25 736 0
-738 744 0
-739 744 0
-740 744 0
-741 744 0
-742 744 0
745 0
746 -744 0
-746 744 0
-739 747 0
-740 747 0
-741 747 0
-742 747 0
739 740 741 742 -747 0
748 -747 0
-748 747 0
749 -747 0
-749 747 0
750 -747 0
-750 747 0
751 -747 0
-751 747 0
752 -753 0
-754 752 0
752 -755 0
752 -756 0
752 -757 0
752 -758 0
752 -759 0
752 -760 0
752 -761 0
752 -762 0
-763 752 0
764 0
26 -752 0
-26 752 0
-754 765 0
-755 765 0
-756 765 0
-757 765 0
-758 765 0
-759 765 0
-760 765 0
-761 765 0
-762 765 0
-763 765 0
766 0
767 -765 0
-767 765 0
-755 768 0
-756 768 0
-757 768 0
-758 768 0
-759 768 0
-760 768 0
-761 768 0
-762 768 0
-763 768 0
769 0
770 -768 0
-770 768 0
-756 771 0
-757 771 0
-758 771 0
-759 771 0
-760 771 0
-761 771 0
-762 771 0
-763 771 0
772 0
773 -771 0
-773 771 0
-757 774 0
-758 774 0
-759 774 0
-760 774 0
-761 774 0
-762 774 0
-763 774 0
775 0
776 -774 0
-776 774 0
-758 777 0
-759 777 0
-760 777 0
-761 777 0
-762 777 0
-763 777 0
778 0
779 -777 0
-779 777 0
-759 780 0
-760 780 0
-761 780 0
-762 780 0
-763 780 0
781 0
782 -780 0
-782 780 0
783 -780 0
-783 780 0
784 -780 0
-784 780 0
785 -780 0
-785 780 0
786 -780 0
-786 780 0
-787 788 0
-789 788 0
788 -790 0
788 -791 0
787 789 790 791 -788 0
27 -788 0
-27 788 0
792 -788 0
-792 788 0
793 -788 0
-793 788 0
794 -788 0
-794 788 0
-795 796 0
-797 796 0
796 -798 0
-799 796 0
-800 796 0
-801 796 0
796 -802 0
796 -803 0
796 -804 0
796 -805 0
796 -806 0
807 0
28 -796 0
-28 796 0
-797 808 0
-798 808 0
-799 808 0
-800 808 0
-801 808 0
-802 808 0
-803 808 0
-804 808 0
-805 808 0
-806 808 0
809 0
810 -808 0
-810 808 0
-798 811 0
-799 811 0
-800 811 0
-801 811 0
-802 811 0
-803 811 0
-804 811 0
-805 811 0
-806 811 0
812 0
813 -811 0
-813 811 0
-799 814 0
-800 814 0
-801 814 0
-802 814 0
-803 814 0
-804 814 0
-805 814 0
-806 814 0
815 0
816 -814 0
-816 814 0
-800 817 0
-801 817 0
-802 817 0
-803 817 0
-804 817 0
-805 817 0
-806 817 0
818 0
819 -817 0
-819 817 0
-801 820 0
-802 820 0
-803 820 0
-804 820 0
-805 820 0
-806 820 0
821 0
822 -820 0
-822 820 0
823 -820 0
-823 820 0
824 -820 0
-824 820 0
825 -820 0
-825 820 0
826 -820 0
-826 820 0
827 -820 0
-827 820 0
-828 829 0
829 -830 0
829 -831 0
-832 829 0
-833 829 0
-834 829 0
835 0
29 -829 0
-29 829 0
836 -829 0
-836 829 0
837 -829 0
-837 829 0
838 -829 0
-838 829 0
839 -829 0
-839 829 0
840 -829 0
-840 829 0
-841 842 0
842 -843 0
842 -844 0
-845 842 0
-846 842 0
-847 842 0
-848 842 0
-849 842 0
850 0
30 -842 0
-30 842 0
-843 851 0
-844 851 0
-845 851 0
-846 851 0
-847 851 0
-848 851 0
-849 851 0
852 0
853 -851 0
-853 851 0
-844 854 0
-845 854 0
-846 854 0
-847 854 0
-848 854 0
-849 854 0
855 0
856 -854 0
-856 854 0
857 -854 0
-857 854 0
858 -854 0
-858 854 0
859 -854 0
-859 854 0
860 -854 0
-860 854 0
861 -854 0
-861 854 0
862 -863 0
-864 862 0
-865 862 0
862 -866 0
862 -867 0
862 -868 0
862 -869 0
-870 862 0
871 0
31 -862 0
-31 862 0
-864 872 0
-865 872 0
-866 872 0
-867 872 0
-868 872 0
-869 872 0
-870 872 0
873 0
874 -872 0
-874 872 0
-865 875 0
-866 875 0
-867 875 0
-868 875 0
-869 875 0
-870 875 0
876 0
877 -875 0
-877 875 0
-866 878 0
-867 878 0
-868 878 0
-869 878 0
-870 878 0
879 0
880 -878 0
-880 878 0
-867 881 0
-868 881 0
-869 881 0
-870 881 0
867 868 869 870 -881 0
882 -881 0
-882 881 0
883 -881 0
-883 881 0
884 -881 0
-884 881 0
885 -881 0
-885 881 0
886 -887 0
886 -888 0
886 -889 0
886 -890 0
886 -891 0
-892 886 0
-893 886 0
-894 886 0
895 0
32 -886 0
-32 886 0
-888 896 0
-889 896 0
-890 896 0
-891 896 0
-892 896 0
-893 896 0
-894 896 0
897 0
898 -896 0
-898 896 0
-889 899 0
-890 899 0
-891 899 0
-892 899 0
-893 899 0
-894 899 0
900 0
901 -899 0
-901 899 0
-890 902 0
-891 902 0
-892 902 0
-893 902 0
-894 902 0
903 0
904 -902 0
-904 902 0
-891 905 0
-892 905 0
-893 905 0
-894 905 0
891 892 893 894 -905 0
906 -905 0
-906 905 0
907 -905 0
-907 905 0
908 -905 0
-908 905 0
909 -905 0
-909 905 0
910 -911 0
910 -912 0
-913 910 0
910 -914 0
910 -915 0
910 -916 0
-917 910 0
910 -918 0
919 0
33 -910 0
-33 910 0
-912 920 0
-913 920 0
-914 920 0
-915 920 0
-916 920 0
-917 920 0
-918 920 0
921 0
922 -920 0
-922 920 0
-913 923 0
-914 923 0
-915 923 0
-916 923 0
-917 923 0
-918 923 0
924 0
925 -923 0
-925 923 0
-914 926 0
-915 926 0
-916 926 0
-917 926 0
-918 926 0
927 0
928 -926 0
-928 926 0
929 -926 0
-929 926 0
930 -926 0
-930 926 0
931 -926 0
-931 926 0
932 -926 0
-932 926 0
-933 934 0
-935 934 0
-936 934 0
-937 934 0
934 -938 0
-939 934 0
934 -940 0
-941 934 0
-942 934 0
-943 934 0
944 0
34 -934 0
-34 934 0
-935 945 0
-936 945 0
-937 945 0
-938 945 0
-939 945 0
-940 945 0
-941 945 0
-942 945 0
-943 945 0
946 0
947 -945 0
-947 945 0
-936 948 0
-937 948 0
-938 948 0
-939 948 0
-940 948 0
-941 948 0
-942 948 0
-943 948 0
949 0
950 -948 0
-950 948 0
-937 951 0
-938 951 0
-939 951 0
-940 951 0
-941 951 0
-942 951 0
-943 951 0
952 0
953 -951 0
-953 951 0
-938 954 0
-939 954 0
-940 954 0
-941 954 0
-942 954 0
-943 954 0
955 0
956 -954 0
-956 954 0
-939 957 0
-940 957 0
-941 957 0
-942 957 0
-943 957 0
958 0
959 -957 0
-959 957 0
960 -957 0
-960 957 0
961 -957 0
-961 957 0
962 -957 0
-962 957 0
963 -957 0
-963 957 0
964 -965 0
964 -966 0
964 -967 0
-968 964 0
-969 964 0
-970 964 0
-971 964 0
-972 964 0
-973 964 0
964 -974 0
975 0
35 -964 0
-35 964 0
-966 976 0
-967 976 0
-968 976 0
-969 976 0
-970 976 0
-971 976 0
-972 976 0
-973 976 0
-974 976 0
977 0
978 -976 0
-978 976 0
-967 979 0
-968 979 0
-969 979 0
-970 979 0
-971 979 0
-972 979 0
-973 979 0
-974 979 0
980 0
981 -979 0
-981 979 0
-968 982 0
-969 982 0
-970 982 0
-971 982 0
-972 982 0
-973 982 0
-974 982 0
983 0
984 -982 0
-984 982 0
-969 985 0
-970 985 0
-971 985 0
-972 985 0
-973 985 0
-974 985 0
986 0
987 -985 0
-987 985 0
-970 988 0
-971 988 0
-972 988 0
-973 988 0
-974 988 0
989 0
990 -988 0
-990 988 0
-971 991 0
-972 991 0
-973 991 0
-974 991 0
971 972 973 974 -991 0
992 -991 0
-992 991 0
993 -991 0
-993 991 0
994 -991 0
-994 991 0
995 -991 0
-995 991 0
-996 997 0
997 -998 0
997 -999 0
-1000 997 0
997 -1001 0
997 -1002 0
-1003 997 0
-1004 997 0
997 -1005 0
1006 0
36 -997 0
-36 997 0
-998 1007 0
-999 1007 0
-1000 1007 0
-1001 1007 0
-1002 1007 0
-1003 1007 0
-1004 1007 0
-1005 1007 0
1008 0
1009 -1007 0
-1009 1007 0
-999 1010 0
-1000 1010 0
-1001 1010 0
-1002 1010 0
-1003 1010 0
-1004 1010 0
-1005 1010 0
1011 0
1012 -1010 0
-1012 1010 0
-1000 1013 0
-1001 1013 0
-1002 1013 0
-1003 1013 0
-1004 1013 0
-1005 1013 0
1014 0
1015 -1013 0
-1015 1013 0
-1001 1016 0
-1002 1016 0
-1003 1016 0
-1004 1016 0
-1005 1016 0
1017 0
1018 -1016 0
-1018 1016 0
1019 -1016 0
-1019 1016 0
1020 -1016 0
-1020 1016 0
1021 -1016 0
-1021 1016 0
1022 -1016 0
-1022 1016 0
1023 -1024 0
-1025 1023 0
-1026 1023 0
-1027 1023 0
-1028 1023 0
-1029 1023 0
-1030 1023 0
1023 -1031 0
-1032 1023 0
1023 -1033 0
1034 0
37 -1023 0
-37 1023 0
-1025 1035 0
-1026 1035 0
-1027 1035 0
-1028 1035 0
-1029 1035 0
-1030 1035 0
-1031 1035 0
-1032 1035 0
-1033 1035 0
1036 0
1037 -1035 0
-1037 1035 0
-1026 1038 0
-1027 1038 0
-1028 1038 0
-1029 1038 0
-1030 1038 0
-1031 1038 0
-1032 1038 0
-1033 1038 0
1039 0
1040 -1038 0
-1040 1038 0
-1027 1041 0
-1028 1041 0
-1029 1041 0
-1030 1041 0
-1031 1041 0
-1032 1041 0
-1033 1041 0
1042 0
1043 -1041 0
-1043 1041 0
-1028 1044 0
-1029 1044 0
-1030 1044 0
-1031 1044 0
-1032 1044 0
-1033 1044 0
1045 0
1046 -1044 0
-1046 1044 0
1047 -1044 0
-1047 1044 0
1048 -1044 0
-1048 1044 0
1049 -1044 0
-1049 1044 0
1050 -1044 0
-1050 1044 0
1051 -1044 0
-1051 1044 0
-1052 1053 0
1053 -1054 0
-1055 1053 0
-1056 1053 0
-1057 1053 0
-1058 1053 0
1053 -1059 0
1053 -1060 0
1061 0
38 -1053 0
-38 1053 0
-1054 1062 0
-1055 1062 0
-1056 1062 0
-1057 1062 0
-1058 1062 0
-1059 1062 0
-1060 1062 0
1063 0
1064 -1062 0
-1064 1062 0
-1055 1065 0
-1056 1065 0
-1057 1065 0
-1058 1065 0
-1059 1065 0
-1060 1065 0
1066 0
1067 -1065 0
-1067 1065 0
-1056 1068 0
-1057 1068 0
-1058 1068 0
-1059 1068 0
-1060 1068 0
1069 0
1070 -1068 0
-1070 1068 0
-1057 1071 0
-1058 1071 0
-1059 1071 0
-1060 1071 0
1057 1058 1059 1060 -1071 0
1072 -1071 0
-1072 1071 0
1073 -1071 0
-1073 1071 0
1074 -1071 0
-1074 1071 0
1075 -1071 0
-1075 1071 0
1076 -1077 0
-1078 1076 0
-1079 1076 0
1076 -1080 0
1076 -1081 0
1076 -1082 0
-1083 1076 0
1076 -1084 0
-1085 1076 0
-1086 1076 0
1087 0
39 -1076 0
-39 1076 0
-1078 1088 0
-1079 1088 0
-1080 1088 0
-1081 1088 0
-1082 1088 0
-1083 1088 0
-1084 1088 0
-1085 1088 0
-1086 1088 0
1089 0
1090 -1088 0
-1090 1088 0
-1079 1091 0
-1080 1091 0
-1081 1091 0
-1082 1091 0
-1083 1091 0
-1084 1091 0
-1085 1091 0
-1086 1091 0
1092 0
1093 -1091 0
-1093 1091 0
-1080 1094 0
-1081 1094 0
-1082 1094 0
-1083 1094 0
-1084 1094 0
-1085 1094 0
-1086 1094 0
1095 0
1096 -1094 0
-1096 1094 0
-1081 1097 0
-1082 1097 0
-1083 1097 0
-1084 1097 0
-1085 1097 0
-1086 1097 0
1098 0
1099 -1097 0
-1099 1097 0
-1082 1100 0
-1083 1100 0
-1084 1100 0
-1085 1100 0
-1086 1100 0
1101 0
1102 -1100 0
-1102 1100 0
-1083 1103 0
-1084 1103 0
-1085 1103 0
-1086 1103 0
1083 1084 1085 1086 -1103 0
1104 -1103 0
-1104 1103 0
1105 -1103 0
-1105 1103 0
1106 -1103 0
-1106 1103 0
1107 -1103 0
-1107 1103 0
1108 -1109 0
1108 -1110 0
-1111 1108 0
1109 1110 1111 -1108 0
40 -1108 0
-40 1108 0
-1110 1112 0
-1111 1112 0
1110 1111 -1112 0
1113 -1112 0
-1113 1112 0
1114 -1112 0
-1114 1112 0
-1115 1116 0
1116 -1117 0
1116 -1118 0
1116 -1119 0
-1120 1116 0
-1121 1116 0
1122 0
41 -1116 0
-41 1116 0
-1117 1123 0
-1118 1123 0
-1119 1123 0
-1120 1123 0
-1121 1123 0
1124 0
1125 -1123 0
-1125 1123 0
-1118 1126 0
-1119 1126 0
-1120 1126 0
-1121 1126 0
1118 1119 1120 1121 -1126 0
1127 -1126 0
-1127 1126 0
1128 -1126 0
-1128 1126 0
1129 -1126 0
-1129 1126 0
1130 -1126 0
-1130 1126 0
1131 -1132 0
-1133 1131 0
1131 -1134 0
-1135 1131 0
1131 -1136 0
-1137 1131 0
1131 -1138 0
1131 -1139 0
-1140 1131 0
1141 0
42 -1131 0
-42 1131 0
-1133 1142 0
-1134 1142 0
-1135 1142 0
-1136 1142 0
-1137 1142 0
-1138 1142 0
-1139 1142 0
-1140 1142 0
1143 0
1144 -1142 0
-1144 1142 0
-1134 1145 0
-1135 1145 0
-1136 1145 0
-1137 1145 0
-1138 1145 0
-1139 1145 0
-1140 1145 0
1146 0
1147 -1145 0
-1147 1145 0
-1135 1148 0
-1136 1148 0
-1137 1148 0
-1138 1148 0
-1139 1148 0
-1140 1148 0
1149 0
1150 -1148 0
-1150 1148 0
-1136 1151 0
-1137 1151 0
-1138 1151 0
-1139 1151 0
-1140 1151 0
1152 0
1153 -1151 0
-1153 1151 0
-1137 1154 0
-1138 1154 0
-1139 1154 0
-1140 1154 0
1137 1138 1139 1140 -1154 0
1155 -1154 0
-1155 1154 0
1156 -1154 0
-1156 1154 0
1157 -1154 0
-1157 1154 0
1158 -1154 0
-1158 1154 0
1159 -1160 0
1159 -1161 0
-1162 1159 0
-1163 1159 0
-1164 1159 0
-1165 1159 0
-1166 1159 0
1159 -1167 0
1168 0
43 -1159 0
-43 1159 0
-1161 1169 0
-1162 1169 0
-1163 1169 0
-1164 1169 0
-1165 1169 0
-1166 1169 0
-1167 1169 0
1170 0
1171 -1169 0
-1171 1169 0
-1162 1172 0
-1163 1172 0
-1164 1172 0
-1165 1172 0
-1166 1172 0
-1167 1172 0
1173 0
1174 -1172 0
-1174 1172 0
-1163 1175 0
-1164 1175 0
-1165 1175 0
-1166 1175 0
-1167 1175 0
1176 0
1177 -1175 0
-1177 1175 0
-1164 1178 0
-1165 1178 0
-1166 1178 0
-1167 1178 0
1164 1165 1166 1167 -1178 0
1179 -1178 0
-1179 1178 0
1180 -1178 0
-1180 1178 0
1181 -1178 0
-1181 1178 0
1182 -1178 0
-1182 1178 0
-1183 1184 0
1184 -1185 0
1184 -1186 0
-1187 1184 0
1184 -1188 0
1184 -1189 0
1190 0
44 -1184 0
-44 1184 0
-1185 1191 0
-1186 1191 0
-1187 1191 0
-1188 1191 0
-1189 1191 0
1192 0
1193 -1191 0
-1193 1191 0
1194 -1191 0
-1194 1191 0
1195 -1191 0
-1195 1191 0
1196 -1191 0
-1196 1191 0
1197 -1191 0
-1197 1191 0
-1198 1199 0
1199 -1200 0
-1201 1199 0
1199 -1202 0
1199 -1203 0
-1204 1199 0
1199 -1205 0
1199 -1206 0
1207 0
45 -1199 0
-45 1199 0
-1200 1208 0
-1201 1208 0
-1202 1208 0
-1203 1208 0
-1204 1208 0
-1205 1208 0
-1206 1208 0
1209 0
1210 -1208 0
-1210 1208 0
-1201 1211 0
-1202 1211 0
-1203 1211 0
-1204 1211 0
-1205 1211 0
-1206 1211 0
1212 0
1213 -1211 0
-1213 1211 0
-1202 1214 0
-1203 1214 0
-1204 1214 0
-1205 1214 0
-1206 1214 0
1215 0
1216 -1214 0
-1216 1214 0
1217 -1214 0
-1217 1214 0
1218 -1214 0
-1218 1214 0
1219 -1214 0
-1219 1214 0
1220 -1214 0
-1220 1214 0
1221 -1222 0
1221 -1223 0
1221 -1224 0
-1225 1221 0
-1226 1221 0
-1227 1221 0
1221 -1228 0
1229 0
46 -1221 0
-46 1221 0
-1223 1230 0
-1224 1230 0
-1225 1230 0
-1226 1230 0
-1227 1230 0
-1228 1230 0
1231 0
1232 -1230 0
-1232 1230 0
-1224 1233 0
-1225 1233 0
-1226 1233 0
-1227 1233 0
-1228 1233 0
1234 0
1235 -1233 0
-1235 1233 0
-1225 1236 0
-1226 1236 0
-1227 1236 0
-1228 1236 0
1225 1226 1227 1228 -1236 0
1237 -1236 0
-1237 1236 0
-1226 1238 0
-1227 1238 0
-1228 1238 0
1226 1227 1228 -1238 0
1239 -1238 0
-1239 1238 0
1240 -1238 0
-1240 1238 0
1241 -1238 0
-1241 1238 0
-1242 1243 0
-1244 1243 0
-1245 1243 0
1243 -1246 0
-1247 1243 0
-1248 1243 0
1243 -1249 0
-1250 1243 0
1243 -1251 0
-1252 1243 0
1253 0
47 -1243 0
-47 1243 0
-1244 1254 0
-1245 1254 0
-1246 1254 0
-1247 1254 0
-1248 1254 0
-1249 1254 0
-1250 1254 0
-1251 1254 0
-1252 1254 0
1255 0
1256 -1254 0
-1256 1254 0
-1245 1257 0
-1246 1257 0
-1247 1257 0
-1248 1257 0
-1249 1257 0
-1250 1257 0
-1251 1257 0
-1252 1257 0
1258 0
1259 -1257 0
-1259 1257 0
-1246 1260 0
-1247 1260 0
-1248 1260 0
-1249 1260 0
-1250 1260 0
-1251 1260 0
-1252 1260 0
1261 0
1262 -1260 0
-1262 1260 0
-1247 1263 0
-1248 1263 0
-1249 1263 0
-1250 1263 0
-1251 1263 0
-1252 1263 0
1264 0
1265 -1263 0
-1265 1263 0
1266 -1263 0
-1266 1263 0
1267 -1263 0
-1267 1263 0
1268 -1263 0
-1268 1263 0
1269 -1263 0
-1269 1263 0
1270 -1263 0
-1270 1263 0
1271 -1272 0
-1273 1271 0
1271 -1274 0
-1275 1271 0
1271 -1276 0
1271 -1277 0
-1278 1271 0
-1279 1271 0
1271 -1280 0
1281 0
48 -1271 0
-48 1271 0
-1273 1282 0
-1274 1282 0
-1275 1282 0
-1276 1282 0
-1277 1282 0
-1278 1282 0
-1279 1282 0
-1280 1282 0
1283 0
1284 -1282 0
-1284 1282 0
-1274 1285 0
-1275 1285 0
-1276 1285 0
-1277 1285 0
-1278 1285 0
-1279 1285 0
-1280 1285 0
1286 0
1287 -1285 0
-1287 1285 0
-1275 1288 0
-1276 1288 0
-1277 1288 0
-1278 1288 0
-1279 1288 0
-1280 1288 0
1289 0
1290 -1288 0
-1290 1288 0
-1276 1291 0
-1277 1291 0
-1278 1291 0
-1279 1291 0
-1280 1291 0
1292 0
1293 -1291 0
-1293 1291 0
1294 -1291 0
-1294 1291 0
1295 -1291 0
-1295 1291 0
1296 -1291 0
-1296 1291 0
1297 -1291 0
-1297 1291 0
1298 -1299 0
-1300 1298 0
-1301 1298 0
-1302 1298 0
1298 -1303 0
-1304 1298 0
1305 0
49 -1298 0
-49 1298 0
-1300 1306 0
-1301 1306 0
-1302 1306 0
-1303 1306 0
-1304 1306 0
1307 0
1308 -1306 0
-1308 1306 0
-1301 1309 0
-1302 1309 0
-1303 1309 0
-1304 1309 0
1301 1302 1303 1304 -1309 0
1310 -1309 0
-1310 1309 0
-1302 1311 0
-1303 1311 0
-1304 1311 0
1302 1303 1304 -1311 0
1312 -1311 0
-1312 1311 0
-1303 1313 0
-1304 1313 0
1303 1304 -1313 0
1314 -1313 0
-1314 1313 0
1315 -1304 0
-1315 1304 0
1316 -1317 0
1316 -1318 0
-1319 1316 0
-1320 1316 0
1316 -1321 0
-1322 1316 0
1316 -1323 0
1316 -1324 0
1316 -1325 0
-1326 1316 0
1327 0
50 -1316 0
-50 1316 0
-1318 1328 0
-1319 1328 0
-1320 1328 0
-1321 1328 0
-1322 1328 0
-1323 1328 0
-1324 1328 0
-1325 1328 0
-1326 1328 0
1329 0
1330 -1328 0
-1330 1328 0
-1319 1331 0
-1320 1331 0
-1321 1331 0
-1322 1331 0
-1323 1331 0
-1324 1331 0
-1325 1331 0
-1326 1331 0
1332 0
1333 -1331 0
-1333 1331 0
-1320 1334 0
-1321 1334 0
-1322 1334 0
-1323 1334 0
-1324 1334 0
-1325 1334 0
-1326 1334 0
1335 0
1336 -1334 0
-1336 1334 0
-1321 1337 0
-1322 1337 0
-1323 1337 0
-1324 1337 0
-1325 1337 0
-1326 1337 0
1338 0
1339 -1337 0
-1339 1337 0
-1322 1340 0
-1323 1340 0
-1324 1340 0
-1325 1340 0
-1326 1340 0
1341 0
1342 -1340 0
-1342 1340 0
1343 -1340 0
-1343 1340 0
1344 -1340 0
-1344 1340 0
1345 -1340 0
-1345 1340 0
1346 -1340 0
-1346 1340 0
51 -1347 0
-51 1347 0
52 -1348 0
-52 1348 0
53 -1349 0
-53 1349 0
54 -1350 0
-54 1350 0
55 -1351 0
-55 1351 0
56 -1352 0
-56 1352 0
57 -1353 0
-57 1353 0
58 -1354 0
-58 1354 0
59 -1355 0
-59 1355 0
60 -1356 0
-60 1356 0
61 -1357 0
-61 1357 0
62 -1358 0
-62 1358 0
63 -1359 0
-63 1359 0
64 -1360 0
-64 1360 0
65 -1361 0
-65 1361 0
66 -1362 0
-66 1362 0
67 -1363 0
-67 1363 0
68 -1364 0
-68 1364 0
69 -1365 0
-69 1365 0
70 -1366 0
-70 1366 0
71 -1367 0
-71 1367 0
72 -1368 0
-72 1368 0
73 -1369 0
-73 1369 0
74 -1370 0
-74 1370 0
75 -1371 0
-75 1371 0
76 -1372 0
-76 1372 0
77 -1373 0
-77 1373 0
78 -1374 0
-78 1374 0
79 -1375 0
-79 1375 0
80 -1376 0
-80 1376 0
81 -1377 0
-81 1377 0
82 -1378 0
-82 1378 0
83 -1379 0
-83 1379 0
84 -1380 0
-84 1380 0
85 -1381 0
-85 1381 0
86 -1382 0
-86 1382 0
87 -1383 0
-87 1383 0
88 -1384 0
-88 1384 0
89 -1385 0
-89 1385 0
90 -1386 0
-90 1386 0
91 -1387 0
-91 1387 0
92 -1388 0
-92 1388 0
93 -1389 0
-93 1389 0
94 -1390 0
-94 1390 0
95 -1391 0
-95 1391 0
96 -1392 0
-96 1392 0
97 -1393 0
-97 1393 0
98 -1394 0
-98 1394 0
99 -1395 0
-99 1395 0
100 -1396 0
-100 1396 0
102 -1397 0
-1397 -103 0
-1397 -104 0
-1397 -105 0
106 -1397 0
107 -1397 0
108 -1397 0
109 -1397 0
110 -1397 0
-1397 -111 0
-1397 -112 0
-1397 -134 0
-1397 -136 0
137 -1397 0
-1397 -138 0
139 -1397 0
140 -1397 0
-1397 -141 0
-1397 -142 0
157 -1397 0
-1397 -158 0
159 -1397 0
160 -1397 0
161 -1397 0
162 -1397 0
-1397 -163 0
-1397 -164 0
-1397 -165 0
166 -1397 0
-1397 -167 0
190 -1397 0
191 -1397 0
192 -1397 0
-1397 -193 0
194 -1397 0
195 -1397 0
-1397 -196 0
-1397 -197 0
-1397 -198 0
199 -1397 0
-1397 -200 0
223 -1397 0
224 -1397 0
-1397 -225 0
226 -1397 0
-1397 -227 0
-1397 -228 0
229 -1397 0
230 -1397 0
-1397 -231 0
-1397 -248 0
250 -1397 0
251 -1397 0
-1397 -252 0
259 -1397 0
-1397 -260 0
261 -1397 0
-1397 -262 0
-1397 -263 0
-1397 -264 0
-1397 -265 0
266 -1397 0
267 -1397 0
-1397 -284 0
-1397 -286 0
-1397 -287 0
288 -1397 0
-1397 -289 0
-1397 -290 0
291 -1397 0
-1397 -292 0
293 -1397 0
294 -1397 0
316 -1397 0
317 -1397 0
-1397 -318 0
-1397 -319 0
-1397 -320 0
321 -1397 0
-1397 -322 0
-1397 -323 0
-1397 -324 0
325 -1397 0
326 -1397 0
349 -1397 0
-1397 -350 0
-1397 -351 0
352 -1397 0
353 -1397 0
354 -1397 0
355 -1397 0
-1397 -356 0
-1397 -371 0
-1397 -373 0
374 -1397 0
-1397 -375 0
376 -1397 0
377 -1397 0
387 -1397 0
388 -1397 0
389 -1397 0
-1397 -390 0
391 -1397 0
-1397 -392 0
-1397 -393 0
404 -1397 0
405 -1397 0
406 -1397 0
407 -1397 0
-1397 -408 0
-1397 -409 0
-1397 -410 0
-1397 -411 0
412 -1397 0
432 -1397 0
-1397 -433 0
-1397 -434 0
435 -1397 0
-1397 -436 0
-1397 -437 0
438 -1397 0
-1397 -439 0
440 -1397 0
441 -1397 0
463 -1397 0
464 -1397 0
465 -1397 0
-1397 -466 0
-1397 -467 0
-1397 -468 0
-1397 -469 0
470 -1397 0
471 -1397 0
-1397 -472 0
-1397 -473 0
474 -1397 0
-1397 -499 0
-1397 -501 0
-1397 -502 0
-1397 -503 0
504 -1397 0
-1397 -505 0
-1397 -506 0
507 -1397 0
-1397 -523 0
-1397 -525 0
526 -1397 0
527 -1397 0
528 -1397 0
529 -1397 0
530 -1397 0
531 -1397 0
-1397 -532 0
-1397 -548 0
550 -1397 0
551 -1397 0
-1397 -552 0
-1397 -553 0
-1397 -554 0
-1397 -555 0
-1397 -556 0
557 -1397 0
-1397 -558 0
559 -1397 0
-1397 -581 0
-1397 -583 0
-1397 -584 0
-1397 -585 0
586 -1397 0
-1397 -587 0
-1397 -588 0
-1397 -589 0
590 -1397 0
591 -1397 0
614 -1397 0
615 -1397 0
616 -1397 0
-1397 -617 0
-1397 -618 0
619 -1397 0
-1397 -620 0
-1397 -621 0
622 -1397 0
-1397 -640 0
642 -1397 0
-1397 -643 0
-1397 -644 0
649 -1397 0
-1397 -650 0
651 -1397 0
652 -1397 0
-1397 -653 0
-1397 -654 0
-1397 -655 0
656 -1397 0
657 -1397 0
-1397 -676 0
-1397 -678 0
679 -1397 0
-1397 -680 0
681 -1397 0
682 -1397 0
-1397 -683 0
-1397 -684 0
-1397 -685 0
686 -1397 0
687 -1397 0
-1397 -688 0
714 -1397 0
715 -1397 0
716 -1397 0
717 -1397 0
718 -1397 0
-1397 -719 0
720 -1397 0
-1397 -721 0
737 -1397 0
-1397 -738 0
739 -1397 0
-1397 -740 0
-1397 -741 0
742 -1397 0
753 -1397 0
-1397 -754 0
755 -1397 0
756 -1397 0
757 -1397 0
758 -1397 0
759 -1397 0
760 -1397 0
761 -1397 0
762 -1397 0
-1397 -763 0
-1397 -787 0
-1397 -789 0
790 -1397 0
791 -1397 0
-1397 -795 0
-1397 -797 0
798 -1397 0
-1397 -799 0
-1397 -800 0
-1397 -801 0
802 -1397 0
803 -1397 0
804 -1397 0
805 -1397 0
806 -1397 0
-1397 -828 0
830 -1397 0
831 -1397 0
-1397 -832 0
-1397 -833 0
-1397 -834 0
-1397 -841 0
843 -1397 0
844 -1397 0
-1397 -845 0
-1397 -846 0
-1397 -847 0
-1397 -848 0
-1397 -849 0
863 -1397 0
-1397 -864 0
-1397 -865 0
866 -1397 0
867 -1397 0
868 -1397 0
869 -1397 0
-1397 -870 0
887 -1397 0
888 -1397 0
889 -1397 0
890 -1397 0
891 -1397 0
-1397 -892 0
-1397 -893 0
-1397 -894 0
911 -1397 0
912 -1397 0
-1397 -913 0
914 -1397 0
915 -1397 0
916 -1397 0
-1397 -917 0
918 -1397 0
-1397 -933 0
-1397 -935 0
-1397 -936 0
-1397 -937 0
938 -1397 0
-1397 -939 0
940 -1397 0
-1397 -941 0
-1397 -942 0
-1397 -943 0
965 -1397 0
966 -1397 0
967 -1397 0
-1397 -968 0
-1397 -969 0
-1397 -970 0
-1397 -971 0
-1397 -972 0
-1397 -973 0
974 -1397 0
-1397 -996 0
998 -1397 0
999 -1397 0
-1397 -1000 0
1001 -1397 0
1002 -1397 0
-1397 -1003 0
-1397 -1004 0
1005 -1397 0
1024 -1397 0
-1397 -1025 0
-1397 -1026 0
-1397 -1027 0
-1397 -1028 0
-1397 -1029 0
-1397 -1030 0
1031 -1397 0
-1397 -1032 0
1033 -1397 0
-1397 -1052 0
1054 -1397 0
-1397 -1055 0
-1397 -1056 0
-1397 -1057 0
-1397 -1058 0
1059 -1397 0
1060 -1397 0
1077 -1397 0
-1397 -1078 0
-1397 -1079 0
1080 -1397 0
1081 -1397 0
1082 -1397 0
-1397 -1083 0
1084 -1397 0
-1397 -1085 0
-1397 -1086 0
1109 -1397 0
1110 -1397 0
-1397 -1111 0
-1397 -1115 0
1117 -1397 0
1118 -1397 0
1119 -1397 0
-1397 -1120 0
-1397 -1121 0
1132 -1397 0
-1397 -1133 0
1134 -1397 0
-1397 -1135 0
1136 -1397 0
-1397 -1137 0
1138 -1397 0
1139 -1397 0
-1397 -1140 0
1160 -1397 0
1161 -1397 0
-1397 -1162 0
-1397 -1163 0
-1397 -1164 0
-1397 -1165 0
-1397 -1166 0
1167 -1397 0
-1397 -1183 0
1185 -1397 0
1186 -1397 0
-1397 -1187 0
1188 -1397 0
1189 -1397 0
-1397 -1198 0
1200 -1397 0
-1397 -1201 0
1202 -1397 0
1203 -1397 0
-1397 -1204 0
1205 -1397 0
1206 -1397 0
1222 -1397 0
1223 -1397 0
1224 -1397 0
-1397 -1225 0
-1397 -1226 0
-1397 -1227 0
1228 -1397 0
-1397 -1242 0
-1397 -1244 0
-1397 -1245 0
1246 -1397 0
-1397 -1247 0
-1397 -1248 0
1249 -1397 0
-1397 -1250 0
1251 -1397 0
-1397 -1252 0
1272 -1397 0
-1397 -1273 0
1274 -1397 0
-1397 -1275 0
1276 -1397 0
1277 -1397 0
-1397 -1278 0
-1397 -1279 0
1280 -1397 0
1299 -1397 0
-1397 -1300 0
-1397 -1301 0
-1397 -1302 0
1303 -1397 0
-1397 -1304 0
1317 -1397 0
1318 -1397 0
-1397 -1319 0
-1397 -1320 0
1321 -1397 0
-1397 -1322 0
1323 -1397 0
1324 -1397 0
1325 -1397 0
-1397 -1326 0
-1397 -1347 0
-1397 -1348 0
-1397 -1349 0
-1397 -1350 0
-1397 -1351 0
-1397 -1352 0
-1397 -1353 0
-1397 -1354 0
-1397 -1355 0
-1397 -1356 0
-1397 -1357 0
-1397 -1358 0
-1397 -1359 0
-1397 -1360 0
-1397 -1361 0
-1397 -1362 0
-1397 -1363 0
-1397 -1364 0
-1397 -1365 0
-1397 -1366 0
-1397 -1367 0
-1397 -1368 0
-1397 -1369 0
-1397 -1370 0
-1397 -1371 0
-1397 -1372 0
-1397 -1373 0
-1397 -1374 0
-1397 -1375 0
-1397 -1376 0
-1397 -1377 0
-1397 -1378 0
-1397 -1379 0
-1397 -1380 0
-1397 -1381 0
-1397 -1382 0
-1397 -1383 0
-1397 -1384 0
-1397 -1385 0
-1397 -1386 0
-1397 -1387 0
-1397 -1388 0
-1397 -1389 0
-1397 -1390 0
-1397 -1391 0
-1397 -1392 0
-1397 -1393 0
-1397 -1394 0
-1397 -1395 0
-1397 -1396 0
1397 0
-1398 0
-1399 0
-1400 0
-1401 0
-1402 0
-1403 0
-1404 0
-1405 0
